
Gurobi 8.0.1 (linux64, Python) logging started Sun Oct 28 01:50:31 2018

Academic license - for non-commercial use only

Gurobi 8.0.1 (linux64, Python) logging started Sun Oct 28 01:51:13 2018

Academic license - for non-commercial use only
Optimize a model with 161 rows, 152 columns and 448 nonzeros
Model has 72 general constraints
Variable types: 88 continuous, 64 integer (48 binary)
Coefficient statistics:
  Matrix range     [1e+00, 3e+01]
  Objective range  [6e+01, 1e+02]
  Bounds range     [1e+00, 1e+00]
  RHS range        [1e+00, 3e+01]
Presolve added 72 rows and 0 columns
Presolve time: 0.00s
Presolved: 233 rows, 152 columns, 1256 nonzeros
Variable types: 0 continuous, 152 integer (120 binary)

Root relaxation: objective 0.000000e+00, 193 iterations, 0.00 seconds

    Nodes    |    Current Node    |     Objective Bounds      |     Work
 Expl Unexpl |  Obj  Depth IntInf | Incumbent    BestBd   Gap | It/Node Time

     0     0    0.00000    0   34          -    0.00000      -     -    0s
H    0     0                    1216.0000000    0.00000   100%     -    0s
H    0     0                    1088.0000000    0.00000   100%     -    0s
H    0     0                     960.0000000    0.00000   100%     -    0s
     0     0    0.00000    0   94  960.00000    0.00000   100%     -    0s
     0     0    0.00000    0   63  960.00000    0.00000   100%     -    0s
H    0     0                     896.0000000    0.00000   100%     -    0s
     0     0    0.00000    0   34  896.00000    0.00000   100%     -    0s
     0     0    0.00000    0   44  896.00000    0.00000   100%     -    0s
H    0     0                     768.0000000    0.00000   100%     -    0s
     0     0    0.00000    0   74  768.00000    0.00000   100%     -    0s
     0     0    0.00000    0   34  768.00000    0.00000   100%     -    0s
H    0     0                     640.0000000    0.00000   100%     -    0s
     0     2    0.00000    0   34  640.00000    0.00000   100%     -    0s

Cutting planes:
  Gomory: 6
  Inf proof: 1
  Zero half: 27

Explored 3032 nodes (31642 simplex iterations) in 0.50 seconds
Thread count was 4 (of 4 available processors)

Solution count 6: 640 768 896 ... 1216

Optimal solution found (tolerance 1.00e-04)
Best objective 6.400000000000e+02, best bound 6.400000000000e+02, gap 0.0000%
Changed value of parameter TimeLimit to 100.0
   Prev: 1e+100  Min: 0.0  Max: 1e+100  Default: 1e+100
Changed value of parameter MIPFocus to 2
   Prev: 0  Min: 0  Max: 3  Default: 0
Optimize a model with 161 rows, 152 columns and 448 nonzeros
Model has 72 general constraints
Variable types: 88 continuous, 64 integer (48 binary)
Coefficient statistics:
  Matrix range     [1e+00, 3e+01]
  Objective range  [6e+01, 1e+02]
  Bounds range     [1e+00, 1e+00]
  RHS range        [1e+00, 3e+01]
Presolved: 233 rows, 152 columns, 1256 nonzeros

Continuing optimization...


Cutting planes:
  Gomory: 6
  Inf proof: 1
  Zero half: 27

Explored 3032 nodes (31642 simplex iterations) in 0.00 seconds
Thread count was 4 (of 4 available processors)

Solution count 6: 640 768 896 ... 1216

Optimal solution found (tolerance 1.00e-04)
Best objective 6.400000000000e+02, best bound 6.400000000000e+02, gap 0.0000%

Gurobi 8.0.1 (linux64, Python) logging started Sun Oct 28 01:54:09 2018

Academic license - for non-commercial use only
Optimize a model with 161 rows, 152 columns and 448 nonzeros
Model has 72 general constraints
Variable types: 88 continuous, 64 integer (48 binary)
Coefficient statistics:
  Matrix range     [1e+00, 3e+01]
  Objective range  [6e+01, 1e+02]
  Bounds range     [1e+00, 1e+00]
  RHS range        [1e+00, 3e+01]
Presolve added 72 rows and 0 columns
Presolve time: 0.00s
Presolved: 233 rows, 152 columns, 1256 nonzeros
Variable types: 0 continuous, 152 integer (120 binary)

Root relaxation: objective 0.000000e+00, 193 iterations, 0.00 seconds

    Nodes    |    Current Node    |     Objective Bounds      |     Work
 Expl Unexpl |  Obj  Depth IntInf | Incumbent    BestBd   Gap | It/Node Time

     0     0    0.00000    0   34          -    0.00000      -     -    0s
H    0     0                    1216.0000000    0.00000   100%     -    0s
H    0     0                    1088.0000000    0.00000   100%     -    0s
H    0     0                     960.0000000    0.00000   100%     -    0s
     0     0    0.00000    0   94  960.00000    0.00000   100%     -    0s
     0     0    0.00000    0   63  960.00000    0.00000   100%     -    0s
H    0     0                     896.0000000    0.00000   100%     -    0s
     0     0    0.00000    0   34  896.00000    0.00000   100%     -    0s
     0     0    0.00000    0   44  896.00000    0.00000   100%     -    0s
H    0     0                     768.0000000    0.00000   100%     -    0s
     0     0    0.00000    0   74  768.00000    0.00000   100%     -    0s
     0     0    0.00000    0   34  768.00000    0.00000   100%     -    0s
H    0     0                     640.0000000    0.00000   100%     -    0s
     0     2    0.00000    0   34  640.00000    0.00000   100%     -    0s

Cutting planes:
  Gomory: 6
  Inf proof: 1
  Zero half: 27

Explored 3032 nodes (31642 simplex iterations) in 0.52 seconds
Thread count was 4 (of 4 available processors)

Solution count 6: 640 768 896 ... 1216

Optimal solution found (tolerance 1.00e-04)
Best objective 6.400000000000e+02, best bound 6.400000000000e+02, gap 0.0000%
Changed value of parameter TimeLimit to 100.0
   Prev: 1e+100  Min: 0.0  Max: 1e+100  Default: 1e+100
Changed value of parameter MIPFocus to 2
   Prev: 0  Min: 0  Max: 3  Default: 0
Optimize a model with 161 rows, 152 columns and 448 nonzeros
Model has 72 general constraints
Variable types: 88 continuous, 64 integer (48 binary)
Coefficient statistics:
  Matrix range     [1e+00, 3e+01]
  Objective range  [6e+01, 1e+02]
  Bounds range     [1e+00, 1e+00]
  RHS range        [1e+00, 3e+01]
Presolved: 233 rows, 152 columns, 1256 nonzeros

Continuing optimization...


Cutting planes:
  Gomory: 6
  Inf proof: 1
  Zero half: 27

Explored 3032 nodes (31642 simplex iterations) in 0.00 seconds
Thread count was 4 (of 4 available processors)

Solution count 6: 640 768 896 ... 1216

Optimal solution found (tolerance 1.00e-04)
Best objective 6.400000000000e+02, best bound 6.400000000000e+02, gap 0.0000%

Gurobi 8.0.1 (linux64, Python) logging started Sun Oct 28 01:58:17 2018

Academic license - for non-commercial use only
Optimize a model with 161 rows, 152 columns and 448 nonzeros
Model has 72 general constraints
Variable types: 88 continuous, 64 integer (48 binary)
Coefficient statistics:
  Matrix range     [1e+00, 3e+01]
  Objective range  [6e+01, 1e+02]
  Bounds range     [1e+00, 1e+00]
  RHS range        [1e+00, 3e+01]
Presolve added 72 rows and 0 columns
Presolve time: 0.00s
Presolved: 233 rows, 152 columns, 1256 nonzeros
Variable types: 0 continuous, 152 integer (120 binary)

Root relaxation: objective 0.000000e+00, 193 iterations, 0.00 seconds

    Nodes    |    Current Node    |     Objective Bounds      |     Work
 Expl Unexpl |  Obj  Depth IntInf | Incumbent    BestBd   Gap | It/Node Time

     0     0    0.00000    0   34          -    0.00000      -     -    0s
H    0     0                    1216.0000000    0.00000   100%     -    0s
H    0     0                    1088.0000000    0.00000   100%     -    0s
H    0     0                     960.0000000    0.00000   100%     -    0s
     0     0    0.00000    0   94  960.00000    0.00000   100%     -    0s
     0     0    0.00000    0   63  960.00000    0.00000   100%     -    0s
H    0     0                     896.0000000    0.00000   100%     -    0s
     0     0    0.00000    0   34  896.00000    0.00000   100%     -    0s
     0     0    0.00000    0   44  896.00000    0.00000   100%     -    0s
H    0     0                     768.0000000    0.00000   100%     -    0s
     0     0    0.00000    0   74  768.00000    0.00000   100%     -    0s
     0     0    0.00000    0   34  768.00000    0.00000   100%     -    0s
H    0     0                     640.0000000    0.00000   100%     -    0s
     0     2    0.00000    0   34  640.00000    0.00000   100%     -    0s

Cutting planes:
  Gomory: 6
  Inf proof: 1
  Zero half: 27

Explored 3032 nodes (31642 simplex iterations) in 0.52 seconds
Thread count was 4 (of 4 available processors)

Solution count 6: 640 768 896 ... 1216

Optimal solution found (tolerance 1.00e-04)
Best objective 6.400000000000e+02, best bound 6.400000000000e+02, gap 0.0000%
Changed value of parameter TimeLimit to 100.0
   Prev: 1e+100  Min: 0.0  Max: 1e+100  Default: 1e+100
Changed value of parameter MIPFocus to 2
   Prev: 0  Min: 0  Max: 3  Default: 0
Optimize a model with 161 rows, 152 columns and 448 nonzeros
Model has 72 general constraints
Variable types: 88 continuous, 64 integer (48 binary)
Coefficient statistics:
  Matrix range     [1e+00, 3e+01]
  Objective range  [6e+01, 1e+02]
  Bounds range     [1e+00, 1e+00]
  RHS range        [1e+00, 3e+01]
Presolved: 233 rows, 152 columns, 1256 nonzeros

Continuing optimization...


Cutting planes:
  Gomory: 6
  Inf proof: 1
  Zero half: 27

Explored 3032 nodes (31642 simplex iterations) in 0.00 seconds
Thread count was 4 (of 4 available processors)

Solution count 6: 640 768 896 ... 1216

Optimal solution found (tolerance 1.00e-04)
Best objective 6.400000000000e+02, best bound 6.400000000000e+02, gap 0.0000%

Gurobi 8.0.1 (linux64, Python) logging started Sun Oct 28 01:58:44 2018

Academic license - for non-commercial use only
Optimize a model with 161 rows, 152 columns and 448 nonzeros
Model has 72 general constraints
Variable types: 88 continuous, 64 integer (48 binary)
Coefficient statistics:
  Matrix range     [1e+00, 3e+01]
  Objective range  [6e+01, 1e+02]
  Bounds range     [1e+00, 1e+00]
  RHS range        [1e+00, 3e+01]
Presolve added 72 rows and 0 columns
Presolve time: 0.00s
Presolved: 233 rows, 152 columns, 1256 nonzeros
Variable types: 0 continuous, 152 integer (120 binary)

Root relaxation: objective 0.000000e+00, 193 iterations, 0.00 seconds

    Nodes    |    Current Node    |     Objective Bounds      |     Work
 Expl Unexpl |  Obj  Depth IntInf | Incumbent    BestBd   Gap | It/Node Time

     0     0    0.00000    0   34          -    0.00000      -     -    0s
H    0     0                    1216.0000000    0.00000   100%     -    0s
H    0     0                    1088.0000000    0.00000   100%     -    0s
H    0     0                     960.0000000    0.00000   100%     -    0s
     0     0    0.00000    0   94  960.00000    0.00000   100%     -    0s
     0     0    0.00000    0   63  960.00000    0.00000   100%     -    0s
H    0     0                     896.0000000    0.00000   100%     -    0s
     0     0    0.00000    0   34  896.00000    0.00000   100%     -    0s
     0     0    0.00000    0   44  896.00000    0.00000   100%     -    0s
H    0     0                     768.0000000    0.00000   100%     -    0s
     0     0    0.00000    0   74  768.00000    0.00000   100%     -    0s
     0     0    0.00000    0   34  768.00000    0.00000   100%     -    0s
H    0     0                     640.0000000    0.00000   100%     -    0s
     0     2    0.00000    0   34  640.00000    0.00000   100%     -    0s

Cutting planes:
  Gomory: 6
  Inf proof: 1
  Zero half: 27

Explored 3032 nodes (31642 simplex iterations) in 0.51 seconds
Thread count was 4 (of 4 available processors)

Solution count 6: 640 768 896 ... 1216

Optimal solution found (tolerance 1.00e-04)
Best objective 6.400000000000e+02, best bound 6.400000000000e+02, gap 0.0000%
Changed value of parameter TimeLimit to 100.0
   Prev: 1e+100  Min: 0.0  Max: 1e+100  Default: 1e+100
Changed value of parameter MIPFocus to 2
   Prev: 0  Min: 0  Max: 3  Default: 0
Optimize a model with 161 rows, 152 columns and 448 nonzeros
Model has 72 general constraints
Variable types: 88 continuous, 64 integer (48 binary)
Coefficient statistics:
  Matrix range     [1e+00, 3e+01]
  Objective range  [6e+01, 1e+02]
  Bounds range     [1e+00, 1e+00]
  RHS range        [1e+00, 3e+01]
Presolved: 233 rows, 152 columns, 1256 nonzeros

Continuing optimization...


Cutting planes:
  Gomory: 6
  Inf proof: 1
  Zero half: 27

Explored 3032 nodes (31642 simplex iterations) in 0.00 seconds
Thread count was 4 (of 4 available processors)

Solution count 6: 640 768 896 ... 1216

Optimal solution found (tolerance 1.00e-04)
Best objective 6.400000000000e+02, best bound 6.400000000000e+02, gap 0.0000%

Gurobi 8.0.1 (linux64, Python) logging started Sun Oct 28 01:59:28 2018

Academic license - for non-commercial use only
Optimize a model with 161 rows, 152 columns and 448 nonzeros
Model has 72 general constraints
Variable types: 88 continuous, 64 integer (48 binary)
Coefficient statistics:
  Matrix range     [1e+00, 3e+01]
  Objective range  [6e+01, 1e+02]
  Bounds range     [1e+00, 1e+00]
  RHS range        [1e+00, 3e+01]
Presolve added 72 rows and 0 columns
Presolve time: 0.00s
Presolved: 233 rows, 152 columns, 1256 nonzeros
Variable types: 0 continuous, 152 integer (120 binary)

Root relaxation: objective 0.000000e+00, 193 iterations, 0.00 seconds

    Nodes    |    Current Node    |     Objective Bounds      |     Work
 Expl Unexpl |  Obj  Depth IntInf | Incumbent    BestBd   Gap | It/Node Time

     0     0    0.00000    0   34          -    0.00000      -     -    0s
H    0     0                    1216.0000000    0.00000   100%     -    0s
H    0     0                    1088.0000000    0.00000   100%     -    0s
H    0     0                     960.0000000    0.00000   100%     -    0s
     0     0    0.00000    0   94  960.00000    0.00000   100%     -    0s
     0     0    0.00000    0   63  960.00000    0.00000   100%     -    0s
H    0     0                     896.0000000    0.00000   100%     -    0s
     0     0    0.00000    0   34  896.00000    0.00000   100%     -    0s
     0     0    0.00000    0   44  896.00000    0.00000   100%     -    0s
H    0     0                     768.0000000    0.00000   100%     -    0s
     0     0    0.00000    0   74  768.00000    0.00000   100%     -    0s
     0     0    0.00000    0   34  768.00000    0.00000   100%     -    0s
H    0     0                     640.0000000    0.00000   100%     -    0s
     0     2    0.00000    0   34  640.00000    0.00000   100%     -    0s

Cutting planes:
  Gomory: 6
  Inf proof: 1
  Zero half: 27

Explored 3032 nodes (31642 simplex iterations) in 0.50 seconds
Thread count was 4 (of 4 available processors)

Solution count 6: 640 768 896 ... 1216

Optimal solution found (tolerance 1.00e-04)
Best objective 6.400000000000e+02, best bound 6.400000000000e+02, gap 0.0000%
Changed value of parameter TimeLimit to 100.0
   Prev: 1e+100  Min: 0.0  Max: 1e+100  Default: 1e+100
Changed value of parameter MIPFocus to 2
   Prev: 0  Min: 0  Max: 3  Default: 0
Optimize a model with 161 rows, 152 columns and 448 nonzeros
Model has 72 general constraints
Variable types: 88 continuous, 64 integer (48 binary)
Coefficient statistics:
  Matrix range     [1e+00, 3e+01]
  Objective range  [6e+01, 1e+02]
  Bounds range     [1e+00, 1e+00]
  RHS range        [1e+00, 3e+01]
Presolved: 233 rows, 152 columns, 1256 nonzeros

Continuing optimization...


Cutting planes:
  Gomory: 6
  Inf proof: 1
  Zero half: 27

Explored 3032 nodes (31642 simplex iterations) in 0.00 seconds
Thread count was 4 (of 4 available processors)

Solution count 6: 640 768 896 ... 1216

Optimal solution found (tolerance 1.00e-04)
Best objective 6.400000000000e+02, best bound 6.400000000000e+02, gap 0.0000%

Gurobi 8.0.1 (linux64, Python) logging started Sun Oct 28 01:59:56 2018

Academic license - for non-commercial use only
Optimize a model with 161 rows, 152 columns and 448 nonzeros
Model has 72 general constraints
Variable types: 88 continuous, 64 integer (48 binary)
Coefficient statistics:
  Matrix range     [1e+00, 3e+01]
  Objective range  [6e+01, 1e+02]
  Bounds range     [1e+00, 1e+00]
  RHS range        [1e+00, 3e+01]
Presolve added 72 rows and 0 columns
Presolve time: 0.00s
Presolved: 233 rows, 152 columns, 1256 nonzeros
Variable types: 0 continuous, 152 integer (120 binary)

Root relaxation: objective 0.000000e+00, 193 iterations, 0.00 seconds

    Nodes    |    Current Node    |     Objective Bounds      |     Work
 Expl Unexpl |  Obj  Depth IntInf | Incumbent    BestBd   Gap | It/Node Time

     0     0    0.00000    0   34          -    0.00000      -     -    0s
H    0     0                    1216.0000000    0.00000   100%     -    0s
H    0     0                    1088.0000000    0.00000   100%     -    0s
H    0     0                     960.0000000    0.00000   100%     -    0s
     0     0    0.00000    0   94  960.00000    0.00000   100%     -    0s
     0     0    0.00000    0   63  960.00000    0.00000   100%     -    0s
H    0     0                     896.0000000    0.00000   100%     -    0s
     0     0    0.00000    0   34  896.00000    0.00000   100%     -    0s
     0     0    0.00000    0   44  896.00000    0.00000   100%     -    0s
H    0     0                     768.0000000    0.00000   100%     -    0s
     0     0    0.00000    0   74  768.00000    0.00000   100%     -    0s
     0     0    0.00000    0   34  768.00000    0.00000   100%     -    0s
H    0     0                     640.0000000    0.00000   100%     -    0s
     0     2    0.00000    0   34  640.00000    0.00000   100%     -    0s

Cutting planes:
  Gomory: 6
  Inf proof: 1
  Zero half: 27

Explored 3032 nodes (31642 simplex iterations) in 0.52 seconds
Thread count was 4 (of 4 available processors)

Solution count 6: 640 768 896 ... 1216

Optimal solution found (tolerance 1.00e-04)
Best objective 6.400000000000e+02, best bound 6.400000000000e+02, gap 0.0000%
Changed value of parameter TimeLimit to 100.0
   Prev: 1e+100  Min: 0.0  Max: 1e+100  Default: 1e+100
Changed value of parameter MIPFocus to 2
   Prev: 0  Min: 0  Max: 3  Default: 0
Optimize a model with 161 rows, 152 columns and 448 nonzeros
Model has 72 general constraints
Variable types: 88 continuous, 64 integer (48 binary)
Coefficient statistics:
  Matrix range     [1e+00, 3e+01]
  Objective range  [6e+01, 1e+02]
  Bounds range     [1e+00, 1e+00]
  RHS range        [1e+00, 3e+01]
Presolved: 233 rows, 152 columns, 1256 nonzeros

Continuing optimization...


Cutting planes:
  Gomory: 6
  Inf proof: 1
  Zero half: 27

Explored 3032 nodes (31642 simplex iterations) in 0.00 seconds
Thread count was 4 (of 4 available processors)

Solution count 6: 640 768 896 ... 1216

Optimal solution found (tolerance 1.00e-04)
Best objective 6.400000000000e+02, best bound 6.400000000000e+02, gap 0.0000%

Gurobi 8.0.1 (linux64, Python) logging started Sun Oct 28 02:00:00 2018

Academic license - for non-commercial use only
Optimize a model with 161 rows, 152 columns and 448 nonzeros
Model has 72 general constraints
Variable types: 88 continuous, 64 integer (48 binary)
Coefficient statistics:
  Matrix range     [1e+00, 3e+01]
  Objective range  [6e+01, 1e+02]
  Bounds range     [1e+00, 1e+00]
  RHS range        [1e+00, 3e+01]
Presolve added 72 rows and 0 columns
Presolve time: 0.00s
Presolved: 233 rows, 152 columns, 1256 nonzeros
Variable types: 0 continuous, 152 integer (120 binary)

Root relaxation: objective 0.000000e+00, 193 iterations, 0.00 seconds

    Nodes    |    Current Node    |     Objective Bounds      |     Work
 Expl Unexpl |  Obj  Depth IntInf | Incumbent    BestBd   Gap | It/Node Time

     0     0    0.00000    0   34          -    0.00000      -     -    0s
H    0     0                    1216.0000000    0.00000   100%     -    0s
H    0     0                    1088.0000000    0.00000   100%     -    0s
H    0     0                     960.0000000    0.00000   100%     -    0s
     0     0    0.00000    0   94  960.00000    0.00000   100%     -    0s
     0     0    0.00000    0   63  960.00000    0.00000   100%     -    0s
H    0     0                     896.0000000    0.00000   100%     -    0s
     0     0    0.00000    0   34  896.00000    0.00000   100%     -    0s
     0     0    0.00000    0   44  896.00000    0.00000   100%     -    0s
H    0     0                     768.0000000    0.00000   100%     -    0s
     0     0    0.00000    0   74  768.00000    0.00000   100%     -    0s
     0     0    0.00000    0   34  768.00000    0.00000   100%     -    0s
H    0     0                     640.0000000    0.00000   100%     -    0s
     0     2    0.00000    0   34  640.00000    0.00000   100%     -    0s

Cutting planes:
  Gomory: 6
  Inf proof: 1
  Zero half: 27

Explored 3032 nodes (31642 simplex iterations) in 0.52 seconds
Thread count was 4 (of 4 available processors)

Solution count 6: 640 768 896 ... 1216

Optimal solution found (tolerance 1.00e-04)
Best objective 6.400000000000e+02, best bound 6.400000000000e+02, gap 0.0000%
Changed value of parameter TimeLimit to 100.0
   Prev: 1e+100  Min: 0.0  Max: 1e+100  Default: 1e+100
Changed value of parameter MIPFocus to 2
   Prev: 0  Min: 0  Max: 3  Default: 0
Optimize a model with 161 rows, 152 columns and 448 nonzeros
Model has 72 general constraints
Variable types: 88 continuous, 64 integer (48 binary)
Coefficient statistics:
  Matrix range     [1e+00, 3e+01]
  Objective range  [6e+01, 1e+02]
  Bounds range     [1e+00, 1e+00]
  RHS range        [1e+00, 3e+01]
Presolved: 233 rows, 152 columns, 1256 nonzeros

Continuing optimization...


Cutting planes:
  Gomory: 6
  Inf proof: 1
  Zero half: 27

Explored 3032 nodes (31642 simplex iterations) in 0.00 seconds
Thread count was 4 (of 4 available processors)

Solution count 6: 640 768 896 ... 1216

Optimal solution found (tolerance 1.00e-04)
Best objective 6.400000000000e+02, best bound 6.400000000000e+02, gap 0.0000%
